c *********************************
c * Circuit generated by BenCGen
c *
c * Parity_406
c *
c * Ports with 1 gate(s): 1
c * Ports with 2 gate(s): 406
c * Total gates: 407
c *********************************
p cnf 813 1625
1 409 0
-1 -409 0
1 -408 0
409 -408 0
-1 -409 408 0
1 2 -410 0
-1 2 410 0
1 -2 410 0
-1 -2 -410 0
3 4 -411 0
-3 4 411 0
3 -4 411 0
-3 -4 -411 0
5 6 -412 0
-5 6 412 0
5 -6 412 0
-5 -6 -412 0
7 8 -413 0
-7 8 413 0
7 -8 413 0
-7 -8 -413 0
9 10 -414 0
-9 10 414 0
9 -10 414 0
-9 -10 -414 0
11 12 -415 0
-11 12 415 0
11 -12 415 0
-11 -12 -415 0
13 14 -416 0
-13 14 416 0
13 -14 416 0
-13 -14 -416 0
15 16 -417 0
-15 16 417 0
15 -16 417 0
-15 -16 -417 0
17 18 -418 0
-17 18 418 0
17 -18 418 0
-17 -18 -418 0
19 20 -419 0
-19 20 419 0
19 -20 419 0
-19 -20 -419 0
21 22 -420 0
-21 22 420 0
21 -22 420 0
-21 -22 -420 0
23 24 -421 0
-23 24 421 0
23 -24 421 0
-23 -24 -421 0
25 26 -422 0
-25 26 422 0
25 -26 422 0
-25 -26 -422 0
27 28 -423 0
-27 28 423 0
27 -28 423 0
-27 -28 -423 0
29 30 -424 0
-29 30 424 0
29 -30 424 0
-29 -30 -424 0
31 32 -425 0
-31 32 425 0
31 -32 425 0
-31 -32 -425 0
33 34 -426 0
-33 34 426 0
33 -34 426 0
-33 -34 -426 0
35 36 -427 0
-35 36 427 0
35 -36 427 0
-35 -36 -427 0
37 38 -428 0
-37 38 428 0
37 -38 428 0
-37 -38 -428 0
39 40 -429 0
-39 40 429 0
39 -40 429 0
-39 -40 -429 0
41 42 -430 0
-41 42 430 0
41 -42 430 0
-41 -42 -430 0
43 44 -431 0
-43 44 431 0
43 -44 431 0
-43 -44 -431 0
45 46 -432 0
-45 46 432 0
45 -46 432 0
-45 -46 -432 0
47 48 -433 0
-47 48 433 0
47 -48 433 0
-47 -48 -433 0
49 50 -434 0
-49 50 434 0
49 -50 434 0
-49 -50 -434 0
51 52 -435 0
-51 52 435 0
51 -52 435 0
-51 -52 -435 0
53 54 -436 0
-53 54 436 0
53 -54 436 0
-53 -54 -436 0
55 56 -437 0
-55 56 437 0
55 -56 437 0
-55 -56 -437 0
57 58 -438 0
-57 58 438 0
57 -58 438 0
-57 -58 -438 0
59 60 -439 0
-59 60 439 0
59 -60 439 0
-59 -60 -439 0
61 62 -440 0
-61 62 440 0
61 -62 440 0
-61 -62 -440 0
63 64 -441 0
-63 64 441 0
63 -64 441 0
-63 -64 -441 0
65 66 -442 0
-65 66 442 0
65 -66 442 0
-65 -66 -442 0
67 68 -443 0
-67 68 443 0
67 -68 443 0
-67 -68 -443 0
69 70 -444 0
-69 70 444 0
69 -70 444 0
-69 -70 -444 0
71 72 -445 0
-71 72 445 0
71 -72 445 0
-71 -72 -445 0
73 74 -446 0
-73 74 446 0
73 -74 446 0
-73 -74 -446 0
75 76 -447 0
-75 76 447 0
75 -76 447 0
-75 -76 -447 0
77 78 -448 0
-77 78 448 0
77 -78 448 0
-77 -78 -448 0
79 80 -449 0
-79 80 449 0
79 -80 449 0
-79 -80 -449 0
81 82 -450 0
-81 82 450 0
81 -82 450 0
-81 -82 -450 0
83 84 -451 0
-83 84 451 0
83 -84 451 0
-83 -84 -451 0
85 86 -452 0
-85 86 452 0
85 -86 452 0
-85 -86 -452 0
87 88 -453 0
-87 88 453 0
87 -88 453 0
-87 -88 -453 0
89 90 -454 0
-89 90 454 0
89 -90 454 0
-89 -90 -454 0
91 92 -455 0
-91 92 455 0
91 -92 455 0
-91 -92 -455 0
93 94 -456 0
-93 94 456 0
93 -94 456 0
-93 -94 -456 0
95 96 -457 0
-95 96 457 0
95 -96 457 0
-95 -96 -457 0
97 98 -458 0
-97 98 458 0
97 -98 458 0
-97 -98 -458 0
99 100 -459 0
-99 100 459 0
99 -100 459 0
-99 -100 -459 0
101 102 -460 0
-101 102 460 0
101 -102 460 0
-101 -102 -460 0
103 104 -461 0
-103 104 461 0
103 -104 461 0
-103 -104 -461 0
105 106 -462 0
-105 106 462 0
105 -106 462 0
-105 -106 -462 0
107 108 -463 0
-107 108 463 0
107 -108 463 0
-107 -108 -463 0
109 110 -464 0
-109 110 464 0
109 -110 464 0
-109 -110 -464 0
111 112 -465 0
-111 112 465 0
111 -112 465 0
-111 -112 -465 0
113 114 -466 0
-113 114 466 0
113 -114 466 0
-113 -114 -466 0
115 116 -467 0
-115 116 467 0
115 -116 467 0
-115 -116 -467 0
117 118 -468 0
-117 118 468 0
117 -118 468 0
-117 -118 -468 0
119 120 -469 0
-119 120 469 0
119 -120 469 0
-119 -120 -469 0
121 122 -470 0
-121 122 470 0
121 -122 470 0
-121 -122 -470 0
123 124 -471 0
-123 124 471 0
123 -124 471 0
-123 -124 -471 0
125 126 -472 0
-125 126 472 0
125 -126 472 0
-125 -126 -472 0
127 128 -473 0
-127 128 473 0
127 -128 473 0
-127 -128 -473 0
129 130 -474 0
-129 130 474 0
129 -130 474 0
-129 -130 -474 0
131 132 -475 0
-131 132 475 0
131 -132 475 0
-131 -132 -475 0
133 134 -476 0
-133 134 476 0
133 -134 476 0
-133 -134 -476 0
135 136 -477 0
-135 136 477 0
135 -136 477 0
-135 -136 -477 0
137 138 -478 0
-137 138 478 0
137 -138 478 0
-137 -138 -478 0
139 140 -479 0
-139 140 479 0
139 -140 479 0
-139 -140 -479 0
141 142 -480 0
-141 142 480 0
141 -142 480 0
-141 -142 -480 0
143 144 -481 0
-143 144 481 0
143 -144 481 0
-143 -144 -481 0
145 146 -482 0
-145 146 482 0
145 -146 482 0
-145 -146 -482 0
147 148 -483 0
-147 148 483 0
147 -148 483 0
-147 -148 -483 0
149 150 -484 0
-149 150 484 0
149 -150 484 0
-149 -150 -484 0
151 152 -485 0
-151 152 485 0
151 -152 485 0
-151 -152 -485 0
153 154 -486 0
-153 154 486 0
153 -154 486 0
-153 -154 -486 0
155 156 -487 0
-155 156 487 0
155 -156 487 0
-155 -156 -487 0
157 158 -488 0
-157 158 488 0
157 -158 488 0
-157 -158 -488 0
159 160 -489 0
-159 160 489 0
159 -160 489 0
-159 -160 -489 0
161 162 -490 0
-161 162 490 0
161 -162 490 0
-161 -162 -490 0
163 164 -491 0
-163 164 491 0
163 -164 491 0
-163 -164 -491 0
165 166 -492 0
-165 166 492 0
165 -166 492 0
-165 -166 -492 0
167 168 -493 0
-167 168 493 0
167 -168 493 0
-167 -168 -493 0
169 170 -494 0
-169 170 494 0
169 -170 494 0
-169 -170 -494 0
171 172 -495 0
-171 172 495 0
171 -172 495 0
-171 -172 -495 0
173 174 -496 0
-173 174 496 0
173 -174 496 0
-173 -174 -496 0
175 176 -497 0
-175 176 497 0
175 -176 497 0
-175 -176 -497 0
177 178 -498 0
-177 178 498 0
177 -178 498 0
-177 -178 -498 0
179 180 -499 0
-179 180 499 0
179 -180 499 0
-179 -180 -499 0
181 182 -500 0
-181 182 500 0
181 -182 500 0
-181 -182 -500 0
183 184 -501 0
-183 184 501 0
183 -184 501 0
-183 -184 -501 0
185 186 -502 0
-185 186 502 0
185 -186 502 0
-185 -186 -502 0
187 188 -503 0
-187 188 503 0
187 -188 503 0
-187 -188 -503 0
189 190 -504 0
-189 190 504 0
189 -190 504 0
-189 -190 -504 0
191 192 -505 0
-191 192 505 0
191 -192 505 0
-191 -192 -505 0
193 194 -506 0
-193 194 506 0
193 -194 506 0
-193 -194 -506 0
195 196 -507 0
-195 196 507 0
195 -196 507 0
-195 -196 -507 0
197 198 -508 0
-197 198 508 0
197 -198 508 0
-197 -198 -508 0
199 200 -509 0
-199 200 509 0
199 -200 509 0
-199 -200 -509 0
201 202 -510 0
-201 202 510 0
201 -202 510 0
-201 -202 -510 0
203 204 -511 0
-203 204 511 0
203 -204 511 0
-203 -204 -511 0
205 206 -512 0
-205 206 512 0
205 -206 512 0
-205 -206 -512 0
207 208 -513 0
-207 208 513 0
207 -208 513 0
-207 -208 -513 0
209 210 -514 0
-209 210 514 0
209 -210 514 0
-209 -210 -514 0
211 212 -515 0
-211 212 515 0
211 -212 515 0
-211 -212 -515 0
213 214 -516 0
-213 214 516 0
213 -214 516 0
-213 -214 -516 0
215 216 -517 0
-215 216 517 0
215 -216 517 0
-215 -216 -517 0
217 218 -518 0
-217 218 518 0
217 -218 518 0
-217 -218 -518 0
219 220 -519 0
-219 220 519 0
219 -220 519 0
-219 -220 -519 0
221 222 -520 0
-221 222 520 0
221 -222 520 0
-221 -222 -520 0
223 224 -521 0
-223 224 521 0
223 -224 521 0
-223 -224 -521 0
225 226 -522 0
-225 226 522 0
225 -226 522 0
-225 -226 -522 0
227 228 -523 0
-227 228 523 0
227 -228 523 0
-227 -228 -523 0
229 230 -524 0
-229 230 524 0
229 -230 524 0
-229 -230 -524 0
231 232 -525 0
-231 232 525 0
231 -232 525 0
-231 -232 -525 0
233 234 -526 0
-233 234 526 0
233 -234 526 0
-233 -234 -526 0
235 236 -527 0
-235 236 527 0
235 -236 527 0
-235 -236 -527 0
237 238 -528 0
-237 238 528 0
237 -238 528 0
-237 -238 -528 0
239 240 -529 0
-239 240 529 0
239 -240 529 0
-239 -240 -529 0
241 242 -530 0
-241 242 530 0
241 -242 530 0
-241 -242 -530 0
243 244 -531 0
-243 244 531 0
243 -244 531 0
-243 -244 -531 0
245 246 -532 0
-245 246 532 0
245 -246 532 0
-245 -246 -532 0
247 248 -533 0
-247 248 533 0
247 -248 533 0
-247 -248 -533 0
249 250 -534 0
-249 250 534 0
249 -250 534 0
-249 -250 -534 0
251 252 -535 0
-251 252 535 0
251 -252 535 0
-251 -252 -535 0
253 254 -536 0
-253 254 536 0
253 -254 536 0
-253 -254 -536 0
255 256 -537 0
-255 256 537 0
255 -256 537 0
-255 -256 -537 0
257 258 -538 0
-257 258 538 0
257 -258 538 0
-257 -258 -538 0
259 260 -539 0
-259 260 539 0
259 -260 539 0
-259 -260 -539 0
261 262 -540 0
-261 262 540 0
261 -262 540 0
-261 -262 -540 0
263 264 -541 0
-263 264 541 0
263 -264 541 0
-263 -264 -541 0
265 266 -542 0
-265 266 542 0
265 -266 542 0
-265 -266 -542 0
267 268 -543 0
-267 268 543 0
267 -268 543 0
-267 -268 -543 0
269 270 -544 0
-269 270 544 0
269 -270 544 0
-269 -270 -544 0
271 272 -545 0
-271 272 545 0
271 -272 545 0
-271 -272 -545 0
273 274 -546 0
-273 274 546 0
273 -274 546 0
-273 -274 -546 0
275 276 -547 0
-275 276 547 0
275 -276 547 0
-275 -276 -547 0
277 278 -548 0
-277 278 548 0
277 -278 548 0
-277 -278 -548 0
279 280 -549 0
-279 280 549 0
279 -280 549 0
-279 -280 -549 0
281 282 -550 0
-281 282 550 0
281 -282 550 0
-281 -282 -550 0
283 284 -551 0
-283 284 551 0
283 -284 551 0
-283 -284 -551 0
285 286 -552 0
-285 286 552 0
285 -286 552 0
-285 -286 -552 0
287 288 -553 0
-287 288 553 0
287 -288 553 0
-287 -288 -553 0
289 290 -554 0
-289 290 554 0
289 -290 554 0
-289 -290 -554 0
291 292 -555 0
-291 292 555 0
291 -292 555 0
-291 -292 -555 0
293 294 -556 0
-293 294 556 0
293 -294 556 0
-293 -294 -556 0
295 296 -557 0
-295 296 557 0
295 -296 557 0
-295 -296 -557 0
297 298 -558 0
-297 298 558 0
297 -298 558 0
-297 -298 -558 0
299 300 -559 0
-299 300 559 0
299 -300 559 0
-299 -300 -559 0
301 302 -560 0
-301 302 560 0
301 -302 560 0
-301 -302 -560 0
303 304 -561 0
-303 304 561 0
303 -304 561 0
-303 -304 -561 0
305 306 -562 0
-305 306 562 0
305 -306 562 0
-305 -306 -562 0
307 308 -563 0
-307 308 563 0
307 -308 563 0
-307 -308 -563 0
309 310 -564 0
-309 310 564 0
309 -310 564 0
-309 -310 -564 0
311 312 -565 0
-311 312 565 0
311 -312 565 0
-311 -312 -565 0
313 314 -566 0
-313 314 566 0
313 -314 566 0
-313 -314 -566 0
315 316 -567 0
-315 316 567 0
315 -316 567 0
-315 -316 -567 0
317 318 -568 0
-317 318 568 0
317 -318 568 0
-317 -318 -568 0
319 320 -569 0
-319 320 569 0
319 -320 569 0
-319 -320 -569 0
321 322 -570 0
-321 322 570 0
321 -322 570 0
-321 -322 -570 0
323 324 -571 0
-323 324 571 0
323 -324 571 0
-323 -324 -571 0
325 326 -572 0
-325 326 572 0
325 -326 572 0
-325 -326 -572 0
327 328 -573 0
-327 328 573 0
327 -328 573 0
-327 -328 -573 0
329 330 -574 0
-329 330 574 0
329 -330 574 0
-329 -330 -574 0
331 332 -575 0
-331 332 575 0
331 -332 575 0
-331 -332 -575 0
333 334 -576 0
-333 334 576 0
333 -334 576 0
-333 -334 -576 0
335 336 -577 0
-335 336 577 0
335 -336 577 0
-335 -336 -577 0
337 338 -578 0
-337 338 578 0
337 -338 578 0
-337 -338 -578 0
339 340 -579 0
-339 340 579 0
339 -340 579 0
-339 -340 -579 0
341 342 -580 0
-341 342 580 0
341 -342 580 0
-341 -342 -580 0
343 344 -581 0
-343 344 581 0
343 -344 581 0
-343 -344 -581 0
345 346 -582 0
-345 346 582 0
345 -346 582 0
-345 -346 -582 0
347 348 -583 0
-347 348 583 0
347 -348 583 0
-347 -348 -583 0
349 350 -584 0
-349 350 584 0
349 -350 584 0
-349 -350 -584 0
351 352 -585 0
-351 352 585 0
351 -352 585 0
-351 -352 -585 0
353 354 -586 0
-353 354 586 0
353 -354 586 0
-353 -354 -586 0
355 356 -587 0
-355 356 587 0
355 -356 587 0
-355 -356 -587 0
357 358 -588 0
-357 358 588 0
357 -358 588 0
-357 -358 -588 0
359 360 -589 0
-359 360 589 0
359 -360 589 0
-359 -360 -589 0
361 362 -590 0
-361 362 590 0
361 -362 590 0
-361 -362 -590 0
363 364 -591 0
-363 364 591 0
363 -364 591 0
-363 -364 -591 0
365 366 -592 0
-365 366 592 0
365 -366 592 0
-365 -366 -592 0
367 368 -593 0
-367 368 593 0
367 -368 593 0
-367 -368 -593 0
369 370 -594 0
-369 370 594 0
369 -370 594 0
-369 -370 -594 0
371 372 -595 0
-371 372 595 0
371 -372 595 0
-371 -372 -595 0
373 374 -596 0
-373 374 596 0
373 -374 596 0
-373 -374 -596 0
375 376 -597 0
-375 376 597 0
375 -376 597 0
-375 -376 -597 0
377 378 -598 0
-377 378 598 0
377 -378 598 0
-377 -378 -598 0
379 380 -599 0
-379 380 599 0
379 -380 599 0
-379 -380 -599 0
381 382 -600 0
-381 382 600 0
381 -382 600 0
-381 -382 -600 0
383 384 -601 0
-383 384 601 0
383 -384 601 0
-383 -384 -601 0
385 386 -602 0
-385 386 602 0
385 -386 602 0
-385 -386 -602 0
387 388 -603 0
-387 388 603 0
387 -388 603 0
-387 -388 -603 0
389 390 -604 0
-389 390 604 0
389 -390 604 0
-389 -390 -604 0
391 392 -605 0
-391 392 605 0
391 -392 605 0
-391 -392 -605 0
393 394 -606 0
-393 394 606 0
393 -394 606 0
-393 -394 -606 0
395 396 -607 0
-395 396 607 0
395 -396 607 0
-395 -396 -607 0
397 398 -608 0
-397 398 608 0
397 -398 608 0
-397 -398 -608 0
399 400 -609 0
-399 400 609 0
399 -400 609 0
-399 -400 -609 0
401 402 -610 0
-401 402 610 0
401 -402 610 0
-401 -402 -610 0
403 404 -611 0
-403 404 611 0
403 -404 611 0
-403 -404 -611 0
405 406 -612 0
-405 406 612 0
405 -406 612 0
-405 -406 -612 0
410 411 -613 0
-410 411 613 0
410 -411 613 0
-410 -411 -613 0
412 413 -614 0
-412 413 614 0
412 -413 614 0
-412 -413 -614 0
414 415 -615 0
-414 415 615 0
414 -415 615 0
-414 -415 -615 0
416 417 -616 0
-416 417 616 0
416 -417 616 0
-416 -417 -616 0
418 419 -617 0
-418 419 617 0
418 -419 617 0
-418 -419 -617 0
420 421 -618 0
-420 421 618 0
420 -421 618 0
-420 -421 -618 0
422 423 -619 0
-422 423 619 0
422 -423 619 0
-422 -423 -619 0
424 425 -620 0
-424 425 620 0
424 -425 620 0
-424 -425 -620 0
426 427 -621 0
-426 427 621 0
426 -427 621 0
-426 -427 -621 0
428 429 -622 0
-428 429 622 0
428 -429 622 0
-428 -429 -622 0
430 431 -623 0
-430 431 623 0
430 -431 623 0
-430 -431 -623 0
432 433 -624 0
-432 433 624 0
432 -433 624 0
-432 -433 -624 0
434 435 -625 0
-434 435 625 0
434 -435 625 0
-434 -435 -625 0
436 437 -626 0
-436 437 626 0
436 -437 626 0
-436 -437 -626 0
438 439 -627 0
-438 439 627 0
438 -439 627 0
-438 -439 -627 0
440 441 -628 0
-440 441 628 0
440 -441 628 0
-440 -441 -628 0
442 443 -629 0
-442 443 629 0
442 -443 629 0
-442 -443 -629 0
444 445 -630 0
-444 445 630 0
444 -445 630 0
-444 -445 -630 0
446 447 -631 0
-446 447 631 0
446 -447 631 0
-446 -447 -631 0
448 449 -632 0
-448 449 632 0
448 -449 632 0
-448 -449 -632 0
450 451 -633 0
-450 451 633 0
450 -451 633 0
-450 -451 -633 0
452 453 -634 0
-452 453 634 0
452 -453 634 0
-452 -453 -634 0
454 455 -635 0
-454 455 635 0
454 -455 635 0
-454 -455 -635 0
456 457 -636 0
-456 457 636 0
456 -457 636 0
-456 -457 -636 0
458 459 -637 0
-458 459 637 0
458 -459 637 0
-458 -459 -637 0
460 461 -638 0
-460 461 638 0
460 -461 638 0
-460 -461 -638 0
462 463 -639 0
-462 463 639 0
462 -463 639 0
-462 -463 -639 0
464 465 -640 0
-464 465 640 0
464 -465 640 0
-464 -465 -640 0
466 467 -641 0
-466 467 641 0
466 -467 641 0
-466 -467 -641 0
468 469 -642 0
-468 469 642 0
468 -469 642 0
-468 -469 -642 0
470 471 -643 0
-470 471 643 0
470 -471 643 0
-470 -471 -643 0
472 473 -644 0
-472 473 644 0
472 -473 644 0
-472 -473 -644 0
474 475 -645 0
-474 475 645 0
474 -475 645 0
-474 -475 -645 0
476 477 -646 0
-476 477 646 0
476 -477 646 0
-476 -477 -646 0
478 479 -647 0
-478 479 647 0
478 -479 647 0
-478 -479 -647 0
480 481 -648 0
-480 481 648 0
480 -481 648 0
-480 -481 -648 0
482 483 -649 0
-482 483 649 0
482 -483 649 0
-482 -483 -649 0
484 485 -650 0
-484 485 650 0
484 -485 650 0
-484 -485 -650 0
486 487 -651 0
-486 487 651 0
486 -487 651 0
-486 -487 -651 0
488 489 -652 0
-488 489 652 0
488 -489 652 0
-488 -489 -652 0
490 491 -653 0
-490 491 653 0
490 -491 653 0
-490 -491 -653 0
492 493 -654 0
-492 493 654 0
492 -493 654 0
-492 -493 -654 0
494 495 -655 0
-494 495 655 0
494 -495 655 0
-494 -495 -655 0
496 497 -656 0
-496 497 656 0
496 -497 656 0
-496 -497 -656 0
498 499 -657 0
-498 499 657 0
498 -499 657 0
-498 -499 -657 0
500 501 -658 0
-500 501 658 0
500 -501 658 0
-500 -501 -658 0
502 503 -659 0
-502 503 659 0
502 -503 659 0
-502 -503 -659 0
504 505 -660 0
-504 505 660 0
504 -505 660 0
-504 -505 -660 0
506 507 -661 0
-506 507 661 0
506 -507 661 0
-506 -507 -661 0
508 509 -662 0
-508 509 662 0
508 -509 662 0
-508 -509 -662 0
510 511 -663 0
-510 511 663 0
510 -511 663 0
-510 -511 -663 0
512 513 -664 0
-512 513 664 0
512 -513 664 0
-512 -513 -664 0
514 515 -665 0
-514 515 665 0
514 -515 665 0
-514 -515 -665 0
516 517 -666 0
-516 517 666 0
516 -517 666 0
-516 -517 -666 0
518 519 -667 0
-518 519 667 0
518 -519 667 0
-518 -519 -667 0
520 521 -668 0
-520 521 668 0
520 -521 668 0
-520 -521 -668 0
522 523 -669 0
-522 523 669 0
522 -523 669 0
-522 -523 -669 0
524 525 -670 0
-524 525 670 0
524 -525 670 0
-524 -525 -670 0
526 527 -671 0
-526 527 671 0
526 -527 671 0
-526 -527 -671 0
528 529 -672 0
-528 529 672 0
528 -529 672 0
-528 -529 -672 0
530 531 -673 0
-530 531 673 0
530 -531 673 0
-530 -531 -673 0
532 533 -674 0
-532 533 674 0
532 -533 674 0
-532 -533 -674 0
534 535 -675 0
-534 535 675 0
534 -535 675 0
-534 -535 -675 0
536 537 -676 0
-536 537 676 0
536 -537 676 0
-536 -537 -676 0
538 539 -677 0
-538 539 677 0
538 -539 677 0
-538 -539 -677 0
540 541 -678 0
-540 541 678 0
540 -541 678 0
-540 -541 -678 0
542 543 -679 0
-542 543 679 0
542 -543 679 0
-542 -543 -679 0
544 545 -680 0
-544 545 680 0
544 -545 680 0
-544 -545 -680 0
546 547 -681 0
-546 547 681 0
546 -547 681 0
-546 -547 -681 0
548 549 -682 0
-548 549 682 0
548 -549 682 0
-548 -549 -682 0
550 551 -683 0
-550 551 683 0
550 -551 683 0
-550 -551 -683 0
552 553 -684 0
-552 553 684 0
552 -553 684 0
-552 -553 -684 0
554 555 -685 0
-554 555 685 0
554 -555 685 0
-554 -555 -685 0
556 557 -686 0
-556 557 686 0
556 -557 686 0
-556 -557 -686 0
558 559 -687 0
-558 559 687 0
558 -559 687 0
-558 -559 -687 0
560 561 -688 0
-560 561 688 0
560 -561 688 0
-560 -561 -688 0
562 563 -689 0
-562 563 689 0
562 -563 689 0
-562 -563 -689 0
564 565 -690 0
-564 565 690 0
564 -565 690 0
-564 -565 -690 0
566 567 -691 0
-566 567 691 0
566 -567 691 0
-566 -567 -691 0
568 569 -692 0
-568 569 692 0
568 -569 692 0
-568 -569 -692 0
570 571 -693 0
-570 571 693 0
570 -571 693 0
-570 -571 -693 0
572 573 -694 0
-572 573 694 0
572 -573 694 0
-572 -573 -694 0
574 575 -695 0
-574 575 695 0
574 -575 695 0
-574 -575 -695 0
576 577 -696 0
-576 577 696 0
576 -577 696 0
-576 -577 -696 0
578 579 -697 0
-578 579 697 0
578 -579 697 0
-578 -579 -697 0
580 581 -698 0
-580 581 698 0
580 -581 698 0
-580 -581 -698 0
582 583 -699 0
-582 583 699 0
582 -583 699 0
-582 -583 -699 0
584 585 -700 0
-584 585 700 0
584 -585 700 0
-584 -585 -700 0
586 587 -701 0
-586 587 701 0
586 -587 701 0
-586 -587 -701 0
588 589 -702 0
-588 589 702 0
588 -589 702 0
-588 -589 -702 0
590 591 -703 0
-590 591 703 0
590 -591 703 0
-590 -591 -703 0
592 593 -704 0
-592 593 704 0
592 -593 704 0
-592 -593 -704 0
594 595 -705 0
-594 595 705 0
594 -595 705 0
-594 -595 -705 0
596 597 -706 0
-596 597 706 0
596 -597 706 0
-596 -597 -706 0
598 599 -707 0
-598 599 707 0
598 -599 707 0
-598 -599 -707 0
600 601 -708 0
-600 601 708 0
600 -601 708 0
-600 -601 -708 0
602 603 -709 0
-602 603 709 0
602 -603 709 0
-602 -603 -709 0
604 605 -710 0
-604 605 710 0
604 -605 710 0
-604 -605 -710 0
606 607 -711 0
-606 607 711 0
606 -607 711 0
-606 -607 -711 0
608 609 -712 0
-608 609 712 0
608 -609 712 0
-608 -609 -712 0
610 611 -713 0
-610 611 713 0
610 -611 713 0
-610 -611 -713 0
613 614 -714 0
-613 614 714 0
613 -614 714 0
-613 -614 -714 0
615 616 -715 0
-615 616 715 0
615 -616 715 0
-615 -616 -715 0
617 618 -716 0
-617 618 716 0
617 -618 716 0
-617 -618 -716 0
619 620 -717 0
-619 620 717 0
619 -620 717 0
-619 -620 -717 0
621 622 -718 0
-621 622 718 0
621 -622 718 0
-621 -622 -718 0
623 624 -719 0
-623 624 719 0
623 -624 719 0
-623 -624 -719 0
625 626 -720 0
-625 626 720 0
625 -626 720 0
-625 -626 -720 0
627 628 -721 0
-627 628 721 0
627 -628 721 0
-627 -628 -721 0
629 630 -722 0
-629 630 722 0
629 -630 722 0
-629 -630 -722 0
631 632 -723 0
-631 632 723 0
631 -632 723 0
-631 -632 -723 0
633 634 -724 0
-633 634 724 0
633 -634 724 0
-633 -634 -724 0
635 636 -725 0
-635 636 725 0
635 -636 725 0
-635 -636 -725 0
637 638 -726 0
-637 638 726 0
637 -638 726 0
-637 -638 -726 0
639 640 -727 0
-639 640 727 0
639 -640 727 0
-639 -640 -727 0
641 642 -728 0
-641 642 728 0
641 -642 728 0
-641 -642 -728 0
643 644 -729 0
-643 644 729 0
643 -644 729 0
-643 -644 -729 0
645 646 -730 0
-645 646 730 0
645 -646 730 0
-645 -646 -730 0
647 648 -731 0
-647 648 731 0
647 -648 731 0
-647 -648 -731 0
649 650 -732 0
-649 650 732 0
649 -650 732 0
-649 -650 -732 0
651 652 -733 0
-651 652 733 0
651 -652 733 0
-651 -652 -733 0
653 654 -734 0
-653 654 734 0
653 -654 734 0
-653 -654 -734 0
655 656 -735 0
-655 656 735 0
655 -656 735 0
-655 -656 -735 0
657 658 -736 0
-657 658 736 0
657 -658 736 0
-657 -658 -736 0
659 660 -737 0
-659 660 737 0
659 -660 737 0
-659 -660 -737 0
661 662 -738 0
-661 662 738 0
661 -662 738 0
-661 -662 -738 0
663 664 -739 0
-663 664 739 0
663 -664 739 0
-663 -664 -739 0
665 666 -740 0
-665 666 740 0
665 -666 740 0
-665 -666 -740 0
667 668 -741 0
-667 668 741 0
667 -668 741 0
-667 -668 -741 0
669 670 -742 0
-669 670 742 0
669 -670 742 0
-669 -670 -742 0
671 672 -743 0
-671 672 743 0
671 -672 743 0
-671 -672 -743 0
673 674 -744 0
-673 674 744 0
673 -674 744 0
-673 -674 -744 0
675 676 -745 0
-675 676 745 0
675 -676 745 0
-675 -676 -745 0
677 678 -746 0
-677 678 746 0
677 -678 746 0
-677 -678 -746 0
679 680 -747 0
-679 680 747 0
679 -680 747 0
-679 -680 -747 0
681 682 -748 0
-681 682 748 0
681 -682 748 0
-681 -682 -748 0
683 684 -749 0
-683 684 749 0
683 -684 749 0
-683 -684 -749 0
685 686 -750 0
-685 686 750 0
685 -686 750 0
-685 -686 -750 0
687 688 -751 0
-687 688 751 0
687 -688 751 0
-687 -688 -751 0
689 690 -752 0
-689 690 752 0
689 -690 752 0
-689 -690 -752 0
691 692 -753 0
-691 692 753 0
691 -692 753 0
-691 -692 -753 0
693 694 -754 0
-693 694 754 0
693 -694 754 0
-693 -694 -754 0
695 696 -755 0
-695 696 755 0
695 -696 755 0
-695 -696 -755 0
697 698 -756 0
-697 698 756 0
697 -698 756 0
-697 -698 -756 0
699 700 -757 0
-699 700 757 0
699 -700 757 0
-699 -700 -757 0
701 702 -758 0
-701 702 758 0
701 -702 758 0
-701 -702 -758 0
703 704 -759 0
-703 704 759 0
703 -704 759 0
-703 -704 -759 0
705 706 -760 0
-705 706 760 0
705 -706 760 0
-705 -706 -760 0
707 708 -761 0
-707 708 761 0
707 -708 761 0
-707 -708 -761 0
709 710 -762 0
-709 710 762 0
709 -710 762 0
-709 -710 -762 0
711 712 -763 0
-711 712 763 0
711 -712 763 0
-711 -712 -763 0
713 612 -764 0
-713 612 764 0
713 -612 764 0
-713 -612 -764 0
714 715 -765 0
-714 715 765 0
714 -715 765 0
-714 -715 -765 0
716 717 -766 0
-716 717 766 0
716 -717 766 0
-716 -717 -766 0
718 719 -767 0
-718 719 767 0
718 -719 767 0
-718 -719 -767 0
720 721 -768 0
-720 721 768 0
720 -721 768 0
-720 -721 -768 0
722 723 -769 0
-722 723 769 0
722 -723 769 0
-722 -723 -769 0
724 725 -770 0
-724 725 770 0
724 -725 770 0
-724 -725 -770 0
726 727 -771 0
-726 727 771 0
726 -727 771 0
-726 -727 -771 0
728 729 -772 0
-728 729 772 0
728 -729 772 0
-728 -729 -772 0
730 731 -773 0
-730 731 773 0
730 -731 773 0
-730 -731 -773 0
732 733 -774 0
-732 733 774 0
732 -733 774 0
-732 -733 -774 0
734 735 -775 0
-734 735 775 0
734 -735 775 0
-734 -735 -775 0
736 737 -776 0
-736 737 776 0
736 -737 776 0
-736 -737 -776 0
738 739 -777 0
-738 739 777 0
738 -739 777 0
-738 -739 -777 0
740 741 -778 0
-740 741 778 0
740 -741 778 0
-740 -741 -778 0
742 743 -779 0
-742 743 779 0
742 -743 779 0
-742 -743 -779 0
744 745 -780 0
-744 745 780 0
744 -745 780 0
-744 -745 -780 0
746 747 -781 0
-746 747 781 0
746 -747 781 0
-746 -747 -781 0
748 749 -782 0
-748 749 782 0
748 -749 782 0
-748 -749 -782 0
750 751 -783 0
-750 751 783 0
750 -751 783 0
-750 -751 -783 0
752 753 -784 0
-752 753 784 0
752 -753 784 0
-752 -753 -784 0
754 755 -785 0
-754 755 785 0
754 -755 785 0
-754 -755 -785 0
756 757 -786 0
-756 757 786 0
756 -757 786 0
-756 -757 -786 0
758 759 -787 0
-758 759 787 0
758 -759 787 0
-758 -759 -787 0
760 761 -788 0
-760 761 788 0
760 -761 788 0
-760 -761 -788 0
762 763 -789 0
-762 763 789 0
762 -763 789 0
-762 -763 -789 0
765 766 -790 0
-765 766 790 0
765 -766 790 0
-765 -766 -790 0
767 768 -791 0
-767 768 791 0
767 -768 791 0
-767 -768 -791 0
769 770 -792 0
-769 770 792 0
769 -770 792 0
-769 -770 -792 0
771 772 -793 0
-771 772 793 0
771 -772 793 0
-771 -772 -793 0
773 774 -794 0
-773 774 794 0
773 -774 794 0
-773 -774 -794 0
775 776 -795 0
-775 776 795 0
775 -776 795 0
-775 -776 -795 0
777 778 -796 0
-777 778 796 0
777 -778 796 0
-777 -778 -796 0
779 780 -797 0
-779 780 797 0
779 -780 797 0
-779 -780 -797 0
781 782 -798 0
-781 782 798 0
781 -782 798 0
-781 -782 -798 0
783 784 -799 0
-783 784 799 0
783 -784 799 0
-783 -784 -799 0
785 786 -800 0
-785 786 800 0
785 -786 800 0
-785 -786 -800 0
787 788 -801 0
-787 788 801 0
787 -788 801 0
-787 -788 -801 0
789 764 -802 0
-789 764 802 0
789 -764 802 0
-789 -764 -802 0
790 791 -803 0
-790 791 803 0
790 -791 803 0
-790 -791 -803 0
792 793 -804 0
-792 793 804 0
792 -793 804 0
-792 -793 -804 0
794 795 -805 0
-794 795 805 0
794 -795 805 0
-794 -795 -805 0
796 797 -806 0
-796 797 806 0
796 -797 806 0
-796 -797 -806 0
798 799 -807 0
-798 799 807 0
798 -799 807 0
-798 -799 -807 0
800 801 -808 0
-800 801 808 0
800 -801 808 0
-800 -801 -808 0
803 804 -809 0
-803 804 809 0
803 -804 809 0
-803 -804 -809 0
805 806 -810 0
-805 806 810 0
805 -806 810 0
-805 -806 -810 0
807 808 -811 0
-807 808 811 0
807 -808 811 0
-807 -808 -811 0
809 810 -812 0
-809 810 812 0
809 -810 812 0
-809 -810 -812 0
811 802 -813 0
-811 802 813 0
811 -802 813 0
-811 -802 -813 0
812 813 -407 0
-812 813 407 0
812 -813 407 0
-812 -813 -407 0
